c Arquivo convertido de dwt__419.mtx
p edge 419 1572
e 1 2
e 1 4
e 1 5
e 1 6
e 1 7
e 1 12
e 2 3
e 2 4
e 2 6
e 2 7
e 2 8
e 2 9
e 2 213
e 2 215
e 2 217
e 2 220
e 3 4
e 3 8
e 3 9
e 3 10
e 3 11
e 4 5
e 4 10
e 4 11
e 4 12
e 4 213
e 4 215
e 4 216
e 4 221
e 5 6
e 5 12
e 5 16
e 5 20
e 5 186
e 5 215
e 5 216
e 5 227
e 6 7
e 6 16
e 6 20
e 6 186
e 6 213
e 6 217
e 6 231
e 7 8
e 7 31
e 7 32
e 7 186
e 8 9
e 8 31
e 8 32
e 8 186
e 9 10
e 9 21
e 9 25
e 9 186
e 9 213
e 9 220
e 9 232
e 10 11
e 10 21
e 10 25
e 10 186
e 10 215
e 10 221
e 10 236
e 11 12
e 11 107
e 11 108
e 11 186
e 12 107
e 12 108
e 12 186
e 13 14
e 13 17
e 13 18
e 13 105
e 13 106
e 13 224
e 13 225
e 13 228
e 13 316
e 14 15
e 14 17
e 14 18
e 14 19
e 14 105
e 14 106
e 14 224
e 14 225
e 14 226
e 15 16
e 15 18
e 15 19
e 15 20
e 15 225
e 15 226
e 15 227
e 16 19
e 16 20
e 16 216
e 16 226
e 16 227
e 17 18
e 17 29
e 17 30
e 17 224
e 17 228
e 17 229
e 17 240
e 18 19
e 18 29
e 18 30
e 18 228
e 18 229
e 18 230
e 19 20
e 19 229
e 19 230
e 19 231
e 20 217
e 20 230
e 20 231
e 21 22
e 21 25
e 21 26
e 21 220
e 21 232
e 21 233
e 22 23
e 22 25
e 22 26
e 22 27
e 22 232
e 22 233
e 22 234
e 23 24
e 23 26
e 23 27
e 23 28
e 23 33
e 23 34
e 23 233
e 23 234
e 23 235
e 24 27
e 24 28
e 24 33
e 24 34
e 24 234
e 24 235
e 24 239
e 24 245
e 25 26
e 25 221
e 25 236
e 25 237
e 26 27
e 26 236
e 26 237
e 26 238
e 27 28
e 27 109
e 27 110
e 27 237
e 27 238
e 27 239
e 28 109
e 28 110
e 28 235
e 28 238
e 28 239
e 28 321
e 29 30
e 29 35
e 29 36
e 29 228
e 29 240
e 29 246
e 30 35
e 30 36
e 31 32
e 31 39
e 31 40
e 32 40
e 32 41
e 33 34
e 33 44
e 33 45
e 34 44
e 34 45
e 34 235
e 34 245
e 34 256
e 35 36
e 35 46
e 35 47
e 35 240
e 35 246
e 35 247
e 35 257
e 36 37
e 36 46
e 36 47
e 36 246
e 36 247
e 36 248
e 37 38
e 37 247
e 37 248
e 37 249
e 38 39
e 38 248
e 38 249
e 38 250
e 39 40
e 39 48
e 39 249
e 39 250
e 39 251
e 40 41
e 40 48
e 40 49
e 40 188
e 40 250
e 40 251
e 40 252
e 40 396
e 41 42
e 41 49
e 41 251
e 41 252
e 41 253
e 42 43
e 42 252
e 42 253
e 42 254
e 43 44
e 43 253
e 43 254
e 43 255
e 44 45
e 44 50
e 44 51
e 44 254
e 44 255
e 44 256
e 45 50
e 45 51
e 45 245
e 45 255
e 45 256
e 45 262
e 46 47
e 46 52
e 46 53
e 46 246
e 46 257
e 46 263
e 47 52
e 47 53
e 48 57
e 48 188
e 48 189
e 49 58
e 49 188
e 49 189
e 50 51
e 50 62
e 50 63
e 51 62
e 51 63
e 51 256
e 51 262
e 51 274
e 52 53
e 52 64
e 52 257
e 52 263
e 52 275
e 53 54
e 53 64
e 53 66
e 53 190
e 53 191
e 54 55
e 54 67
e 54 190
e 54 191
e 54 192
e 54 265
e 55 56
e 55 68
e 55 191
e 55 192
e 55 193
e 56 57
e 56 78
e 56 79
e 56 80
e 56 192
e 56 193
e 57 79
e 57 80
e 57 183
e 57 188
e 57 189
e 58 59
e 58 81
e 58 82
e 58 183
e 58 188
e 58 189
e 59 60
e 59 81
e 59 82
e 59 84
e 59 196
e 59 197
e 60 61
e 60 73
e 60 196
e 60 197
e 60 198
e 61 62
e 61 74
e 61 197
e 61 198
e 61 199
e 61 272
e 62 63
e 62 75
e 62 77
e 62 198
e 62 199
e 63 77
e 63 262
e 63 274
e 63 288
e 64 65
e 64 66
e 64 190
e 64 263
e 64 275
e 64 276
e 64 398
e 65 66
e 65 88
e 65 89
e 65 275
e 65 276
e 65 299
e 66 67
e 66 88
e 66 89
e 66 190
e 66 191
e 66 277
e 67 68
e 67 190
e 67 191
e 67 192
e 68 69
e 68 191
e 68 192
e 68 193
e 68 279
e 69 70
e 69 78
e 69 86
e 69 87
e 69 192
e 69 193
e 70 86
e 70 87
e 70 90
e 70 182
e 70 194
e 70 195
e 71 72
e 71 83
e 71 85
e 71 91
e 71 182
e 71 194
e 71 195
e 72 73
e 72 83
e 72 84
e 72 85
e 72 196
e 72 197
e 73 74
e 73 196
e 73 197
e 73 198
e 73 284
e 74 75
e 74 197
e 74 198
e 74 199
e 75 76
e 75 77
e 75 92
e 75 93
e 75 198
e 75 199
e 75 286
e 76 77
e 76 92
e 76 93
e 76 287
e 76 288
e 76 304
e 77 199
e 77 274
e 77 287
e 77 288
e 77 407
e 78 79
e 78 87
e 78 187
e 78 193
e 78 289
e 78 290
e 78 298
e 78 401
e 79 80
e 79 187
e 79 289
e 79 290
e 79 291
e 80 183
e 80 187
e 80 290
e 80 291
e 80 394
e 81 82
e 81 183
e 81 187
e 81 292
e 81 293
e 81 394
e 82 84
e 82 187
e 82 292
e 82 293
e 82 295
e 83 84
e 83 85
e 83 187
e 83 294
e 83 295
e 83 296
e 84 187
e 84 196
e 84 293
e 84 294
e 84 295
e 84 404
e 85 182
e 85 187
e 85 294
e 85 296
e 85 393
e 86 87
e 86 182
e 86 187
e 86 297
e 86 298
e 86 393
e 87 187
e 87 289
e 87 297
e 87 298
e 88 89
e 88 94
e 88 95
e 88 276
e 88 299
e 88 305
e 89 94
e 89 95
e 90 91
e 90 98
e 90 99
e 90 194
e 90 195
e 91 99
e 91 100
e 91 194
e 91 195
e 92 93
e 92 103
e 92 104
e 93 103
e 93 104
e 93 287
e 93 304
e 93 315
e 94 95
e 94 299
e 94 305
e 94 306
e 95 96
e 95 305
e 95 306
e 95 307
e 96 97
e 96 306
e 96 307
e 96 308
e 97 98
e 97 307
e 97 308
e 97 309
e 98 99
e 98 308
e 98 309
e 98 310
e 99 100
e 99 195
e 99 309
e 99 310
e 99 311
e 99 403
e 100 101
e 100 310
e 100 311
e 100 312
e 101 102
e 101 311
e 101 312
e 101 313
e 102 103
e 102 312
e 102 313
e 102 314
e 103 104
e 103 313
e 103 314
e 103 315
e 104 304
e 104 314
e 104 315
e 105 106
e 105 111
e 105 112
e 105 224
e 105 316
e 105 322
e 106 111
e 106 112
e 107 108
e 107 115
e 107 116
e 108 116
e 108 117
e 109 110
e 109 120
e 109 121
e 110 120
e 110 121
e 110 239
e 110 321
e 110 332
e 111 112
e 111 122
e 111 123
e 111 316
e 111 322
e 111 323
e 111 333
e 112 113
e 112 122
e 112 123
e 112 322
e 112 323
e 112 324
e 113 114
e 113 323
e 113 324
e 113 325
e 114 115
e 114 324
e 114 325
e 114 326
e 115 116
e 115 124
e 115 325
e 115 326
e 115 327
e 116 117
e 116 124
e 116 125
e 116 207
e 116 326
e 116 327
e 116 328
e 116 415
e 117 118
e 117 125
e 117 327
e 117 328
e 117 329
e 118 119
e 118 328
e 118 329
e 118 330
e 119 120
e 119 329
e 119 330
e 119 331
e 120 121
e 120 126
e 120 127
e 120 330
e 120 331
e 120 332
e 121 126
e 121 127
e 121 321
e 121 331
e 121 332
e 121 338
e 122 123
e 122 128
e 122 131
e 122 322
e 122 333
e 122 339
e 123 128
e 123 131
e 124 135
e 124 206
e 124 207
e 125 136
e 125 206
e 125 207
e 126 127
e 126 140
e 126 141
e 127 140
e 127 141
e 127 332
e 127 338
e 127 352
e 128 129
e 128 131
e 128 333
e 128 339
e 128 340
e 129 130
e 129 131
e 129 142
e 129 205
e 129 339
e 129 340
e 129 341
e 129 413
e 130 142
e 130 165
e 130 166
e 130 340
e 130 341
e 130 376
e 131 132
e 131 142
e 131 204
e 131 205
e 132 133
e 132 143
e 132 203
e 132 204
e 132 205
e 132 343
e 133 134
e 133 144
e 133 202
e 133 203
e 133 204
e 134 135
e 134 154
e 134 155
e 134 156
e 134 202
e 134 203
e 135 155
e 135 156
e 135 157
e 135 206
e 135 207
e 136 137
e 136 157
e 136 158
e 136 159
e 136 206
e 136 207
e 137 138
e 137 158
e 137 159
e 137 160
e 137 208
e 137 209
e 138 139
e 138 149
e 138 208
e 138 209
e 138 210
e 139 140
e 139 150
e 139 209
e 139 210
e 139 211
e 139 350
e 140 141
e 140 151
e 140 153
e 140 210
e 140 211
e 141 153
e 141 338
e 141 352
e 141 364
e 142 143
e 142 165
e 142 166
e 142 204
e 142 205
e 142 353
e 143 144
e 143 203
e 143 204
e 143 205
e 144 145
e 144 202
e 144 203
e 144 204
e 144 355
e 145 146
e 145 154
e 145 163
e 145 164
e 145 202
e 145 203
e 146 163
e 146 164
e 146 167
e 146 184
e 146 200
e 146 201
e 147 148
e 147 161
e 147 162
e 147 168
e 147 184
e 147 200
e 147 201
e 148 149
e 148 160
e 148 161
e 148 162
e 148 208
e 148 209
e 149 150
e 149 208
e 149 209
e 149 210
e 149 360
e 150 151
e 150 209
e 150 210
e 150 211
e 151 152
e 151 153
e 151 169
e 151 170
e 151 210
e 151 211
e 151 362
e 152 153
e 152 169
e 152 170
e 152 363
e 152 364
e 152 381
e 153 211
e 153 352
e 153 363
e 153 364
e 153 419
e 154 155
e 154 164
e 154 185
e 154 202
e 154 365
e 154 366
e 154 375
e 154 410
e 155 156
e 155 185
e 155 365
e 155 366
e 155 367
e 156 157
e 156 185
e 156 366
e 156 367
e 156 368
e 157 158
e 157 185
e 157 206
e 157 367
e 157 368
e 157 369
e 157 414
e 158 159
e 158 185
e 158 368
e 158 369
e 158 370
e 159 160
e 159 185
e 159 369
e 159 370
e 159 371
e 160 161
e 160 185
e 160 208
e 160 370
e 160 371
e 160 372
e 160 416
e 161 162
e 161 185
e 161 371
e 161 372
e 161 373
e 162 184
e 162 185
e 162 372
e 162 373
e 162 395
e 163 164
e 163 184
e 163 185
e 163 374
e 163 375
e 163 395
e 164 185
e 164 365
e 164 374
e 164 375
e 165 166
e 165 171
e 165 172
e 165 341
e 165 376
e 165 382
e 166 171
e 166 172
e 167 175
e 167 176
e 167 200
e 167 201
e 168 176
e 168 177
e 168 200
e 168 201
e 169 170
e 169 180
e 169 181
e 170 180
e 170 181
e 170 363
e 170 381
e 170 392
e 171 172
e 171 376
e 171 382
e 171 383
e 172 173
e 172 382
e 172 383
e 172 384
e 173 174
e 173 383
e 173 384
e 173 385
e 174 175
e 174 384
e 174 385
e 174 386
e 175 176
e 175 385
e 175 386
e 175 387
e 176 177
e 176 200
e 176 386
e 176 387
e 176 388
e 176 408
e 177 178
e 177 387
e 177 388
e 177 389
e 178 179
e 178 388
e 178 389
e 178 390
e 179 180
e 179 389
e 179 390
e 179 391
e 180 181
e 180 390
e 180 391
e 180 392
e 181 381
e 181 391
e 181 392
e 182 187
e 182 194
e 182 296
e 182 297
e 182 393
e 182 402
e 183 187
e 183 189
e 183 291
e 183 292
e 183 394
e 183 397
e 184 185
e 184 201
e 184 373
e 184 374
e 184 395
e 184 409
e 188 189
e 188 251
e 188 396
e 188 397
e 189 394
e 189 396
e 189 397
e 190 191
e 190 275
e 190 398
e 190 399
e 191 192
e 191 398
e 191 399
e 191 400
e 192 193
e 192 399
e 192 400
e 192 401
e 193 289
e 193 400
e 193 401
e 194 195
e 194 393
e 194 402
e 194 403
e 195 310
e 195 402
e 195 403
e 196 197
e 196 295
e 196 404
e 196 405
e 197 198
e 197 404
e 197 405
e 197 406
e 198 199
e 198 405
e 198 406
e 198 407
e 199 288
e 199 406
e 199 407
e 200 201
e 200 387
e 200 408
e 200 409
e 201 395
e 201 408
e 201 409
e 202 203
e 202 365
e 202 410
e 202 411
e 203 204
e 203 410
e 203 411
e 203 412
e 204 205
e 204 411
e 204 412
e 204 413
e 205 340
e 205 412
e 205 413
e 206 207
e 206 368
e 206 414
e 206 415
e 207 327
e 207 414
e 207 415
e 208 209
e 208 371
e 208 416
e 208 417
e 209 210
e 209 416
e 209 417
e 209 418
e 210 211
e 210 417
e 210 418
e 210 419
e 211 364
e 211 418
e 211 419
e 212 213
e 212 215
e 212 216
e 212 217
e 212 218
e 212 223
e 213 214
e 213 215
e 213 217
e 213 218
e 213 219
e 213 220
e 214 215
e 214 219
e 214 220
e 214 221
e 214 222
e 215 216
e 215 221
e 215 222
e 215 223
e 216 217
e 216 223
e 216 227
e 216 231
e 217 218
e 217 227
e 217 231
e 218 219
e 218 242
e 218 243
e 219 220
e 219 242
e 219 243
e 220 221
e 220 232
e 220 236
e 221 222
e 221 232
e 221 236
e 222 223
e 222 318
e 222 319
e 223 318
e 223 319
e 224 225
e 224 228
e 224 229
e 224 316
e 224 317
e 225 226
e 225 228
e 225 229
e 225 230
e 225 316
e 225 317
e 226 227
e 226 229
e 226 230
e 226 231
e 227 230
e 227 231
e 228 229
e 228 240
e 228 241
e 229 230
e 229 240
e 229 241
e 230 231
e 232 233
e 232 236
e 232 237
e 233 234
e 233 236
e 233 237
e 233 238
e 234 235
e 234 237
e 234 238
e 234 239
e 234 244
e 234 245
e 235 238
e 235 239
e 235 244
e 235 245
e 236 237
e 237 238
e 238 239
e 238 320
e 238 321
e 239 320
e 239 321
e 240 241
e 240 246
e 240 247
e 241 246
e 241 247
e 242 243
e 242 250
e 242 251
e 243 251
e 243 252
e 244 245
e 244 255
e 244 256
e 245 255
e 245 256
e 246 247
e 246 257
e 246 258
e 247 248
e 247 257
e 247 258
e 248 249
e 249 250
e 250 251
e 250 259
e 251 252
e 251 259
e 251 260
e 251 396
e 252 253
e 252 260
e 253 254
e 254 255
e 255 256
e 255 261
e 255 262
e 256 261
e 256 262
e 257 258
e 257 263
e 257 264
e 258 263
e 258 264
e 259 268
e 259 396
e 259 397
e 260 269
e 260 396
e 260 397
e 261 262
e 261 273
e 261 274
e 262 273
e 262 274
e 263 264
e 263 275
e 264 265
e 264 275
e 264 277
e 264 398
e 264 399
e 265 266
e 265 278
e 265 398
e 265 399
e 265 400
e 266 267
e 266 279
e 266 399
e 266 400
e 266 401
e 267 268
e 267 289
e 267 290
e 267 291
e 267 400
e 267 401
e 268 290
e 268 291
e 268 394
e 268 396
e 268 397
e 269 270
e 269 292
e 269 293
e 269 394
e 269 396
e 269 397
e 270 271
e 270 292
e 270 293
e 270 295
e 270 404
e 270 405
e 271 272
e 271 284
e 271 404
e 271 405
e 271 406
e 272 273
e 272 285
e 272 405
e 272 406
e 272 407
e 273 274
e 273 286
e 273 288
e 273 406
e 273 407
e 274 288
e 275 276
e 275 277
e 275 398
e 276 277
e 276 299
e 276 300
e 277 278
e 277 299
e 277 300
e 277 398
e 277 399
e 278 279
e 278 398
e 278 399
e 278 400
e 279 280
e 279 399
e 279 400
e 279 401
e 280 281
e 280 289
e 280 297
e 280 298
e 280 400
e 280 401
e 281 297
e 281 298
e 281 301
e 281 393
e 281 402
e 281 403
e 282 283
e 282 294
e 282 296
e 282 302
e 282 393
e 282 402
e 282 403
e 283 284
e 283 294
e 283 295
e 283 296
e 283 404
e 283 405
e 284 285
e 284 404
e 284 405
e 284 406
e 285 286
e 285 405
e 285 406
e 285 407
e 286 287
e 286 288
e 286 303
e 286 304
e 286 406
e 286 407
e 287 288
e 287 303
e 287 304
e 288 407
e 289 290
e 289 298
e 289 401
e 290 291
e 291 394
e 292 293
e 292 394
e 293 295
e 294 295
e 294 296
e 295 404
e 296 393
e 297 298
e 297 393
e 299 300
e 299 305
e 299 306
e 300 305
e 300 306
e 301 302
e 301 309
e 301 310
e 301 402
e 301 403
e 302 310
e 302 311
e 302 402
e 302 403
e 303 304
e 303 314
e 303 315
e 304 314
e 304 315
e 305 306
e 306 307
e 307 308
e 308 309
e 309 310
e 310 311
e 310 403
e 311 312
e 312 313
e 313 314
e 314 315
e 316 317
e 316 322
e 316 323
e 317 322
e 317 323
e 318 319
e 318 326
e 318 327
e 319 327
e 319 328
e 320 321
e 320 331
e 320 332
e 321 331
e 321 332
e 322 323
e 322 333
e 322 334
e 323 324
e 323 333
e 323 334
e 324 325
e 325 326
e 326 327
e 326 335
e 327 328
e 327 335
e 327 336
e 327 415
e 328 329
e 328 336
e 329 330
e 330 331
e 331 332
e 331 337
e 331 338
e 332 337
e 332 338
e 333 334
e 333 339
e 333 342
e 334 339
e 334 342
e 335 346
e 335 414
e 335 415
e 336 347
e 336 414
e 336 415
e 337 338
e 337 351
e 337 352
e 338 351
e 338 352
e 339 340
e 339 342
e 340 341
e 340 342
e 340 353
e 340 413
e 341 353
e 341 376
e 341 377
e 342 343
e 342 353
e 342 412
e 342 413
e 343 344
e 343 354
e 343 411
e 343 412
e 343 413
e 344 345
e 344 355
e 344 410
e 344 411
e 344 412
e 345 346
e 345 365
e 345 366
e 345 367
e 345 410
e 345 411
e 346 366
e 346 367
e 346 368
e 346 414
e 346 415
e 347 348
e 347 368
e 347 369
e 347 370
e 347 414
e 347 415
e 348 349
e 348 369
e 348 370
e 348 371
e 348 416
e 348 417
e 349 350
e 349 360
e 349 416
e 349 417
e 349 418
e 350 351
e 350 361
e 350 417
e 350 418
e 350 419
e 351 352
e 351 362
e 351 364
e 351 418
e 351 419
e 352 364
e 353 354
e 353 376
e 353 377
e 353 412
e 353 413
e 354 355
e 354 411
e 354 412
e 354 413
e 355 356
e 355 410
e 355 411
e 355 412
e 356 357
e 356 365
e 356 374
e 356 375
e 356 410
e 356 411
e 357 374
e 357 375
e 357 378
e 357 395
e 357 408
e 357 409
e 358 359
e 358 372
e 358 373
e 358 379
e 358 395
e 358 408
e 358 409
e 359 360
e 359 371
e 359 372
e 359 373
e 359 416
e 359 417
e 360 361
e 360 416
e 360 417
e 360 418
e 361 362
e 361 417
e 361 418
e 361 419
e 362 363
e 362 364
e 362 380
e 362 381
e 362 418
e 362 419
e 363 364
e 363 380
e 363 381
e 364 419
e 365 366
e 365 375
e 365 410
e 366 367
e 367 368
e 368 369
e 368 414
e 369 370
e 370 371
e 371 372
e 371 416
e 372 373
e 373 395
e 374 375
e 374 395
e 376 377
e 376 382
e 376 383
e 377 382
e 377 383
e 378 386
e 378 387
e 378 408
e 378 409
e 379 387
e 379 388
e 379 408
e 379 409
e 380 381
e 380 391
e 380 392
e 381 391
e 381 392
e 382 383
e 383 384
e 384 385
e 385 386
e 386 387
e 387 388
e 387 408
e 388 389
e 389 390
e 390 391
e 391 392
e 393 402
e 394 397
e 395 409
e 396 397
e 398 399
e 399 400
e 400 401
e 402 403
e 404 405
e 405 406
e 406 407
e 408 409
e 410 411
e 411 412
e 412 413
e 414 415
e 416 417
e 417 418
e 418 419
